c A SAT instance generated from a 3-CNF formula that had 22 clauses and 11 variables
p cnf 11 22
10 -8 4 0
-8 2 3 0
7 -1 -3 0
-1 5 7 0
11 6 7 0
11 -2 -7 0
8 -5 7 0
-10 9 3 0
6 11 4 0
4 5 1 0
-8 3 6 0
-4 -3 -6 0
4 -5 10 0
-6 -4 2 0
-9 8 -6 0
-8 5 -2 0
-3 4 -8 0
-7 -3 -5 0
-9 4 -5 0
-10 -7 -2 0
-7 8 5 0
10 2 7 0
